numbers = [
    _,_,_,_,1,_,
    2,_,2,4,
    _,_,2,_,9,
    _,_,9,4,_,_,
    2,2,
    _,_,2,_,_,_,
    1,1,1,1,
    7,_,1,_,9,
    _,3,_,_,_,_
];

operators = [
    "-", "+",
    "+",
    "*", "+", "*", "*",
    "+", "+",
    "+", "-",
    "-", "-",
    "+",
    "*", "+", "*", "+",
    "+", "+"
];